liczbaMiejsc = 48;
liczbaPracownikow = 24;
dMin = 2.5;
procentowaZajetoscMiejscWFirmie = 0.5;
macierzOdleglosci = [[0, 1.5, 3.0, 2.0, 2.5, 3.6, 5.0, 5.2, 5.8, 7.0, 7.2, 7.6, 10.0, 10.1, 10.4, 12.0, 12.1, 12.4, 15.0, 15.1, 15.3, 17.0, 17.1, 17.3, 20.0, 20.1, 20.2, 22.0, 22.1, 22.2, 25.0, 25.0, 25.2, 27.0, 27.0, 27.2, 30.0, 30.0, 30.1, 32.0, 32.0, 32.1, 35.0, 35.0, 35.1, 37.0, 37.0, 37.1], [0, 0, 1.5, 2.5, 2.0, 2.5, 5.2, 5.0, 5.2, 7.2, 7.0, 7.2, 10.1, 10.0, 10.1, 12.1, 12.0, 12.1, 15.1, 15.0, 15.1, 17.1, 17.0, 17.1, 20.1, 20.0, 20.1, 22.1, 22.0, 22.1, 25.0, 25.0, 25.0, 27.0, 27.0, 27.0, 30.0, 30.0, 30.0, 32.0, 32.0, 32.0, 35.0, 35.0, 35.0, 37.0, 37.0, 37.0], [0, 0, 0, 3.6, 2.5, 2.0, 5.8, 5.2, 5.0, 7.6, 7.2, 7.0, 10.4, 10.1, 10.0, 12.4, 12.1, 12.0, 15.3, 15.1, 15.0, 17.3, 17.1, 17.0, 20.2, 20.1, 20.0, 22.2, 22.1, 22.0, 25.2, 25.0, 25.0, 27.2, 27.0, 27.0, 30.1, 30.0, 30.0, 32.1, 32.0, 32.0, 35.1, 35.0, 35.0, 37.1, 37.0, 37.0], [0, 0, 0, 0, 1.5, 3.0, 3.0, 3.4, 4.2, 5.0, 5.2, 5.8, 8.0, 8.1, 8.5, 10.0, 10.1, 10.4, 13.0, 13.1, 13.3, 15.0, 15.1, 15.3, 18.0, 18.1, 18.2, 20.0, 20.1, 20.2, 23.0, 23.0, 23.2, 25.0, 25.0, 25.2, 28.0, 28.0, 28.2, 30.0, 30.0, 30.1, 33.0, 33.0, 33.1, 35.0, 35.0, 35.1], [0, 0, 0, 0, 0, 1.5, 3.4, 3.0, 3.4, 5.2, 5.0, 5.2, 8.1, 8.0, 8.1, 10.1, 10.0, 10.1, 13.1, 13.0, 13.1, 15.1, 15.0, 15.1, 18.1, 18.0, 18.1, 20.1, 20.0, 20.1, 23.0, 23.0, 23.0, 25.0, 25.0, 25.0, 28.0, 28.0, 28.0, 30.0, 30.0, 30.0, 33.0, 33.0, 33.0, 35.0, 35.0, 35.0], [0, 0, 0, 0, 0, 0, 4.2, 3.4, 3.0, 5.8, 5.2, 5.0, 8.5, 8.1, 8.0, 10.4, 10.1, 10.0, 13.3, 13.1, 13.0, 15.3, 15.1, 15.0, 18.2, 18.1, 18.0, 20.2, 20.1, 20.0, 23.2, 23.0, 23.0, 25.2, 25.0, 25.0, 28.2, 28.0, 28.0, 30.1, 30.0, 30.0, 33.1, 33.0, 33.0, 35.1, 35.0, 35.0], [0, 0, 0, 0, 0, 0, 0, 1.5, 3.0, 2.0, 2.5, 3.6, 5.0, 5.2, 5.8, 7.0, 7.2, 7.6, 10.0, 10.1, 10.4, 12.0, 12.1, 12.4, 15.0, 15.1, 15.3, 17.0, 17.1, 17.3, 20.0, 20.1, 20.2, 22.0, 22.1, 22.2, 25.0, 25.0, 25.2, 27.0, 27.0, 27.2, 30.0, 30.0, 30.1, 32.0, 32.0, 32.1], [0, 0, 0, 0, 0, 0, 0, 0, 1.5, 2.5, 2.0, 2.5, 5.2, 5.0, 5.2, 7.2, 7.0, 7.2, 10.1, 10.0, 10.1, 12.1, 12.0, 12.1, 15.1, 15.0, 15.1, 17.1, 17.0, 17.1, 20.1, 20.0, 20.1, 22.1, 22.0, 22.1, 25.0, 25.0, 25.0, 27.0, 27.0, 27.0, 30.0, 30.0, 30.0, 32.0, 32.0, 32.0], [0, 0, 0, 0, 0, 0, 0, 0, 0, 3.6, 2.5, 2.0, 5.8, 5.2, 5.0, 7.6, 7.2, 7.0, 10.4, 10.1, 10.0, 12.4, 12.1, 12.0, 15.3, 15.1, 15.0, 17.3, 17.1, 17.0, 20.2, 20.1, 20.0, 22.2, 22.1, 22.0, 25.2, 25.0, 25.0, 27.2, 27.0, 27.0, 30.1, 30.0, 30.0, 32.1, 32.0, 32.0], [0, 0, 0, 0, 0, 0, 0, 0, 0, 0, 1.5, 3.0, 3.0, 3.4, 4.2, 5.0, 5.2, 5.8, 8.0, 8.1, 8.5, 10.0, 10.1, 10.4, 13.0, 13.1, 13.3, 15.0, 15.1, 15.3, 18.0, 18.1, 18.2, 20.0, 20.1, 20.2, 23.0, 23.0, 23.2, 25.0, 25.0, 25.2, 28.0, 28.0, 28.2, 30.0, 30.0, 30.1], [0, 0, 0, 0, 0, 0, 0, 0, 0, 0, 0, 1.5, 3.4, 3.0, 3.4, 5.2, 5.0, 5.2, 8.1, 8.0, 8.1, 10.1, 10.0, 10.1, 13.1, 13.0, 13.1, 15.1, 15.0, 15.1, 18.1, 18.0, 18.1, 20.1, 20.0, 20.1, 23.0, 23.0, 23.0, 25.0, 25.0, 25.0, 28.0, 28.0, 28.0, 30.0, 30.0, 30.0], [0, 0, 0, 0, 0, 0, 0, 0, 0, 0, 0, 0, 4.2, 3.4, 3.0, 5.8, 5.2, 5.0, 8.5, 8.1, 8.0, 10.4, 10.1, 10.0, 13.3, 13.1, 13.0, 15.3, 15.1, 15.0, 18.2, 18.1, 18.0, 20.2, 20.1, 20.0, 23.2, 23.0, 23.0, 25.2, 25.0, 25.0, 28.2, 28.0, 28.0, 30.1, 30.0, 30.0], [0, 0, 0, 0, 0, 0, 0, 0, 0, 0, 0, 0, 0, 1.5, 3.0, 2.0, 2.5, 3.6, 5.0, 5.2, 5.8, 7.0, 7.2, 7.6, 10.0, 10.1, 10.4, 12.0, 12.1, 12.4, 15.0, 15.1, 15.3, 17.0, 17.1, 17.3, 20.0, 20.1, 20.2, 22.0, 22.1, 22.2, 25.0, 25.0, 25.2, 27.0, 27.0, 27.2], [0, 0, 0, 0, 0, 0, 0, 0, 0, 0, 0, 0, 0, 0, 1.5, 2.5, 2.0, 2.5, 5.2, 5.0, 5.2, 7.2, 7.0, 7.2, 10.1, 10.0, 10.1, 12.1, 12.0, 12.1, 15.1, 15.0, 15.1, 17.1, 17.0, 17.1, 20.1, 20.0, 20.1, 22.1, 22.0, 22.1, 25.0, 25.0, 25.0, 27.0, 27.0, 27.0], [0, 0, 0, 0, 0, 0, 0, 0, 0, 0, 0, 0, 0, 0, 0, 3.6, 2.5, 2.0, 5.8, 5.2, 5.0, 7.6, 7.2, 7.0, 10.4, 10.1, 10.0, 12.4, 12.1, 12.0, 15.3, 15.1, 15.0, 17.3, 17.1, 17.0, 20.2, 20.1, 20.0, 22.2, 22.1, 22.0, 25.2, 25.0, 25.0, 27.2, 27.0, 27.0], [0, 0, 0, 0, 0, 0, 0, 0, 0, 0, 0, 0, 0, 0, 0, 0, 1.5, 3.0, 3.0, 3.4, 4.2, 5.0, 5.2, 5.8, 8.0, 8.1, 8.5, 10.0, 10.1, 10.4, 13.0, 13.1, 13.3, 15.0, 15.1, 15.3, 18.0, 18.1, 18.2, 20.0, 20.1, 20.2, 23.0, 23.0, 23.2, 25.0, 25.0, 25.2], [0, 0, 0, 0, 0, 0, 0, 0, 0, 0, 0, 0, 0, 0, 0, 0, 0, 1.5, 3.4, 3.0, 3.4, 5.2, 5.0, 5.2, 8.1, 8.0, 8.1, 10.1, 10.0, 10.1, 13.1, 13.0, 13.1, 15.1, 15.0, 15.1, 18.1, 18.0, 18.1, 20.1, 20.0, 20.1, 23.0, 23.0, 23.0, 25.0, 25.0, 25.0], [0, 0, 0, 0, 0, 0, 0, 0, 0, 0, 0, 0, 0, 0, 0, 0, 0, 0, 4.2, 3.4, 3.0, 5.8, 5.2, 5.0, 8.5, 8.1, 8.0, 10.4, 10.1, 10.0, 13.3, 13.1, 13.0, 15.3, 15.1, 15.0, 18.2, 18.1, 18.0, 20.2, 20.1, 20.0, 23.2, 23.0, 23.0, 25.2, 25.0, 25.0], [0, 0, 0, 0, 0, 0, 0, 0, 0, 0, 0, 0, 0, 0, 0, 0, 0, 0, 0, 1.5, 3.0, 2.0, 2.5, 3.6, 5.0, 5.2, 5.8, 7.0, 7.2, 7.6, 10.0, 10.1, 10.4, 12.0, 12.1, 12.4, 15.0, 15.1, 15.3, 17.0, 17.1, 17.3, 20.0, 20.1, 20.2, 22.0, 22.1, 22.2], [0, 0, 0, 0, 0, 0, 0, 0, 0, 0, 0, 0, 0, 0, 0, 0, 0, 0, 0, 0, 1.5, 2.5, 2.0, 2.5, 5.2, 5.0, 5.2, 7.2, 7.0, 7.2, 10.1, 10.0, 10.1, 12.1, 12.0, 12.1, 15.1, 15.0, 15.1, 17.1, 17.0, 17.1, 20.1, 20.0, 20.1, 22.1, 22.0, 22.1], [0, 0, 0, 0, 0, 0, 0, 0, 0, 0, 0, 0, 0, 0, 0, 0, 0, 0, 0, 0, 0, 3.6, 2.5, 2.0, 5.8, 5.2, 5.0, 7.6, 7.2, 7.0, 10.4, 10.1, 10.0, 12.4, 12.1, 12.0, 15.3, 15.1, 15.0, 17.3, 17.1, 17.0, 20.2, 20.1, 20.0, 22.2, 22.1, 22.0], [0, 0, 0, 0, 0, 0, 0, 0, 0, 0, 0, 0, 0, 0, 0, 0, 0, 0, 0, 0, 0, 0, 1.5, 3.0, 3.0, 3.4, 4.2, 5.0, 5.2, 5.8, 8.0, 8.1, 8.5, 10.0, 10.1, 10.4, 13.0, 13.1, 13.3, 15.0, 15.1, 15.3, 18.0, 18.1, 18.2, 20.0, 20.1, 20.2], [0, 0, 0, 0, 0, 0, 0, 0, 0, 0, 0, 0, 0, 0, 0, 0, 0, 0, 0, 0, 0, 0, 0, 1.5, 3.4, 3.0, 3.4, 5.2, 5.0, 5.2, 8.1, 8.0, 8.1, 10.1, 10.0, 10.1, 13.1, 13.0, 13.1, 15.1, 15.0, 15.1, 18.1, 18.0, 18.1, 20.1, 20.0, 20.1], [0, 0, 0, 0, 0, 0, 0, 0, 0, 0, 0, 0, 0, 0, 0, 0, 0, 0, 0, 0, 0, 0, 0, 0, 4.2, 3.4, 3.0, 5.8, 5.2, 5.0, 8.5, 8.1, 8.0, 10.4, 10.1, 10.0, 13.3, 13.1, 13.0, 15.3, 15.1, 15.0, 18.2, 18.1, 18.0, 20.2, 20.1, 20.0], [0, 0, 0, 0, 0, 0, 0, 0, 0, 0, 0, 0, 0, 0, 0, 0, 0, 0, 0, 0, 0, 0, 0, 0, 0, 1.5, 3.0, 2.0, 2.5, 3.6, 5.0, 5.2, 5.8, 7.0, 7.2, 7.6, 10.0, 10.1, 10.4, 12.0, 12.1, 12.4, 15.0, 15.1, 15.3, 17.0, 17.1, 17.3], [0, 0, 0, 0, 0, 0, 0, 0, 0, 0, 0, 0, 0, 0, 0, 0, 0, 0, 0, 0, 0, 0, 0, 0, 0, 0, 1.5, 2.5, 2.0, 2.5, 5.2, 5.0, 5.2, 7.2, 7.0, 7.2, 10.1, 10.0, 10.1, 12.1, 12.0, 12.1, 15.1, 15.0, 15.1, 17.1, 17.0, 17.1], [0, 0, 0, 0, 0, 0, 0, 0, 0, 0, 0, 0, 0, 0, 0, 0, 0, 0, 0, 0, 0, 0, 0, 0, 0, 0, 0, 3.6, 2.5, 2.0, 5.8, 5.2, 5.0, 7.6, 7.2, 7.0, 10.4, 10.1, 10.0, 12.4, 12.1, 12.0, 15.3, 15.1, 15.0, 17.3, 17.1, 17.0], [0, 0, 0, 0, 0, 0, 0, 0, 0, 0, 0, 0, 0, 0, 0, 0, 0, 0, 0, 0, 0, 0, 0, 0, 0, 0, 0, 0, 1.5, 3.0, 3.0, 3.4, 4.2, 5.0, 5.2, 5.8, 8.0, 8.1, 8.5, 10.0, 10.1, 10.4, 13.0, 13.1, 13.3, 15.0, 15.1, 15.3], [0, 0, 0, 0, 0, 0, 0, 0, 0, 0, 0, 0, 0, 0, 0, 0, 0, 0, 0, 0, 0, 0, 0, 0, 0, 0, 0, 0, 0, 1.5, 3.4, 3.0, 3.4, 5.2, 5.0, 5.2, 8.1, 8.0, 8.1, 10.1, 10.0, 10.1, 13.1, 13.0, 13.1, 15.1, 15.0, 15.1], [0, 0, 0, 0, 0, 0, 0, 0, 0, 0, 0, 0, 0, 0, 0, 0, 0, 0, 0, 0, 0, 0, 0, 0, 0, 0, 0, 0, 0, 0, 4.2, 3.4, 3.0, 5.8, 5.2, 5.0, 8.5, 8.1, 8.0, 10.4, 10.1, 10.0, 13.3, 13.1, 13.0, 15.3, 15.1, 15.0], [0, 0, 0, 0, 0, 0, 0, 0, 0, 0, 0, 0, 0, 0, 0, 0, 0, 0, 0, 0, 0, 0, 0, 0, 0, 0, 0, 0, 0, 0, 0, 1.5, 3.0, 2.0, 2.5, 3.6, 5.0, 5.2, 5.8, 7.0, 7.2, 7.6, 10.0, 10.1, 10.4, 12.0, 12.1, 12.4], [0, 0, 0, 0, 0, 0, 0, 0, 0, 0, 0, 0, 0, 0, 0, 0, 0, 0, 0, 0, 0, 0, 0, 0, 0, 0, 0, 0, 0, 0, 0, 0, 1.5, 2.5, 2.0, 2.5, 5.2, 5.0, 5.2, 7.2, 7.0, 7.2, 10.1, 10.0, 10.1, 12.1, 12.0, 12.1], [0, 0, 0, 0, 0, 0, 0, 0, 0, 0, 0, 0, 0, 0, 0, 0, 0, 0, 0, 0, 0, 0, 0, 0, 0, 0, 0, 0, 0, 0, 0, 0, 0, 3.6, 2.5, 2.0, 5.8, 5.2, 5.0, 7.6, 7.2, 7.0, 10.4, 10.1, 10.0, 12.4, 12.1, 12.0], [0, 0, 0, 0, 0, 0, 0, 0, 0, 0, 0, 0, 0, 0, 0, 0, 0, 0, 0, 0, 0, 0, 0, 0, 0, 0, 0, 0, 0, 0, 0, 0, 0, 0, 1.5, 3.0, 3.0, 3.4, 4.2, 5.0, 5.2, 5.8, 8.0, 8.1, 8.5, 10.0, 10.1, 10.4], [0, 0, 0, 0, 0, 0, 0, 0, 0, 0, 0, 0, 0, 0, 0, 0, 0, 0, 0, 0, 0, 0, 0, 0, 0, 0, 0, 0, 0, 0, 0, 0, 0, 0, 0, 1.5, 3.4, 3.0, 3.4, 5.2, 5.0, 5.2, 8.1, 8.0, 8.1, 10.1, 10.0, 10.1], [0, 0, 0, 0, 0, 0, 0, 0, 0, 0, 0, 0, 0, 0, 0, 0, 0, 0, 0, 0, 0, 0, 0, 0, 0, 0, 0, 0, 0, 0, 0, 0, 0, 0, 0, 0, 4.2, 3.4, 3.0, 5.8, 5.2, 5.0, 8.5, 8.1, 8.0, 10.4, 10.1, 10.0], [0, 0, 0, 0, 0, 0, 0, 0, 0, 0, 0, 0, 0, 0, 0, 0, 0, 0, 0, 0, 0, 0, 0, 0, 0, 0, 0, 0, 0, 0, 0, 0, 0, 0, 0, 0, 0, 1.5, 3.0, 2.0, 2.5, 3.6, 5.0, 5.2, 5.8, 7.0, 7.2, 7.6], [0, 0, 0, 0, 0, 0, 0, 0, 0, 0, 0, 0, 0, 0, 0, 0, 0, 0, 0, 0, 0, 0, 0, 0, 0, 0, 0, 0, 0, 0, 0, 0, 0, 0, 0, 0, 0, 0, 1.5, 2.5, 2.0, 2.5, 5.2, 5.0, 5.2, 7.2, 7.0, 7.2], [0, 0, 0, 0, 0, 0, 0, 0, 0, 0, 0, 0, 0, 0, 0, 0, 0, 0, 0, 0, 0, 0, 0, 0, 0, 0, 0, 0, 0, 0, 0, 0, 0, 0, 0, 0, 0, 0, 0, 3.6, 2.5, 2.0, 5.8, 5.2, 5.0, 7.6, 7.2, 7.0], [0, 0, 0, 0, 0, 0, 0, 0, 0, 0, 0, 0, 0, 0, 0, 0, 0, 0, 0, 0, 0, 0, 0, 0, 0, 0, 0, 0, 0, 0, 0, 0, 0, 0, 0, 0, 0, 0, 0, 0, 1.5, 3.0, 3.0, 3.4, 4.2, 5.0, 5.2, 5.8], [0, 0, 0, 0, 0, 0, 0, 0, 0, 0, 0, 0, 0, 0, 0, 0, 0, 0, 0, 0, 0, 0, 0, 0, 0, 0, 0, 0, 0, 0, 0, 0, 0, 0, 0, 0, 0, 0, 0, 0, 0, 1.5, 3.4, 3.0, 3.4, 5.2, 5.0, 5.2], [0, 0, 0, 0, 0, 0, 0, 0, 0, 0, 0, 0, 0, 0, 0, 0, 0, 0, 0, 0, 0, 0, 0, 0, 0, 0, 0, 0, 0, 0, 0, 0, 0, 0, 0, 0, 0, 0, 0, 0, 0, 0, 4.2, 3.4, 3.0, 5.8, 5.2, 5.0], [0, 0, 0, 0, 0, 0, 0, 0, 0, 0, 0, 0, 0, 0, 0, 0, 0, 0, 0, 0, 0, 0, 0, 0, 0, 0, 0, 0, 0, 0, 0, 0, 0, 0, 0, 0, 0, 0, 0, 0, 0, 0, 0, 1.5, 3.0, 2.0, 2.5, 3.6], [0, 0, 0, 0, 0, 0, 0, 0, 0, 0, 0, 0, 0, 0, 0, 0, 0, 0, 0, 0, 0, 0, 0, 0, 0, 0, 0, 0, 0, 0, 0, 0, 0, 0, 0, 0, 0, 0, 0, 0, 0, 0, 0, 0, 1.5, 2.5, 2.0, 2.5], [0, 0, 0, 0, 0, 0, 0, 0, 0, 0, 0, 0, 0, 0, 0, 0, 0, 0, 0, 0, 0, 0, 0, 0, 0, 0, 0, 0, 0, 0, 0, 0, 0, 0, 0, 0, 0, 0, 0, 0, 0, 0, 0, 0, 0, 3.6, 2.5, 2.0], [0, 0, 0, 0, 0, 0, 0, 0, 0, 0, 0, 0, 0, 0, 0, 0, 0, 0, 0, 0, 0, 0, 0, 0, 0, 0, 0, 0, 0, 0, 0, 0, 0, 0, 0, 0, 0, 0, 0, 0, 0, 0, 0, 0, 0, 0, 1.5, 3.0], [0, 0, 0, 0, 0, 0, 0, 0, 0, 0, 0, 0, 0, 0, 0, 0, 0, 0, 0, 0, 0, 0, 0, 0, 0, 0, 0, 0, 0, 0, 0, 0, 0, 0, 0, 0, 0, 0, 0, 0, 0, 0, 0, 0, 0, 0, 0, 1.5], [0, 0, 0, 0, 0, 0, 0, 0, 0, 0, 0, 0, 0, 0, 0, 0, 0, 0, 0, 0, 0, 0, 0, 0, 0, 0, 0, 0, 0, 0, 0, 0, 0, 0, 0, 0, 0, 0, 0, 0, 0, 0, 0, 0, 0, 0, 0, 0]];